315662
957835
572807
332491
527125
624923
54187
563585
648737
399894
857358
753361
563073
202764
389832
450237
200929
969287
456762
116332
544107
878018
850817
978350
309578
875976
417092
898094
106442
783851
728557
113331
965852
296349
941876
662610
51765
114606
61719
331700
585749
188002
98662
544832
645861
154734
335738
938149
420409
369743
493318
639941
331702
595400
796677
381313
958349
496118
105427
556445
395621
363985
591704
998736
46103
275713
676959
376555
258323
458394
820421
44835
327136
651766
562316
97917
638272
483118
462351
835477
481329
948916
135504
191626
313232
899728
242477
213577
514905
69237
165553
539829
395145
664832
301191
481200
447332
900300
911306
956617
